30
2 1 7
3 1 14
3 2 1
4 0 9
4 1 7
5 0 7
5 1 14
5 2 4
5 4 6
6 0 7
6 4 13
7 1 12
7 2 13
7 3 10
7 5 11
7 6 4
8 0 7
8 1 7
8 3 13
8 5 12
9 0 13
9 2 13
9 3 6
9 6 14
9 7 11
9 8 8
10 0 3
10 1 14
10 4 1
10 5 10
10 6 11
10 7 10
10 9 11
11 1 8
11 5 6
11 7 12
11 9 13
11 10 10
12 0 6
12 1 1
12 3 11
12 4 6
12 5 1
12 7 5
12 9 7
12 11 3
13 5 1
13 6 12
13 10 14
14 0 8
14 2 4
14 10 1
14 12 13
15 0 1
15 7 9
15 8 5
15 9 8
15 11 13
16 4 12
16 8 13
16 9 1
16 11 13
16 12 9
16 13 4
16 14 7
16 15 10
17 0 11
17 1 11
17 3 6
17 5 7
17 6 5
17 7 14
17 8 9
17 10 6
17 15 4
18 2 3
18 3 3
18 4 13
18 6 8
18 7 1
18 9 14
18 11 4
18 12 2
18 14 12
18 15 6
19 3 1
19 5 8
19 6 7
19 8 14
19 10 1
19 12 9
19 15 2
19 18 11
20 0 13
20 2 14
20 3 12
20 4 13
20 5 7
20 7 11
20 8 7
20 18 8
21 0 7
21 1 13
21 2 10
21 3 7
21 6 7
21 10 3
21 11 11
21 13 9
22 3 10
22 5 2
22 6 14
22 11 11
22 12 9
22 15 5
22 16 9
22 21 11
23 1 1
23 2 12
23 3 14
23 5 8
23 6 4
23 8 1
23 9 9
23 10 4
23 13 11
23 16 14
23 17 3
23 18 7
23 19 14
23 20 13
23 22 10
24 2 12
24 3 13
24 11 7
24 12 1
24 13 14
24 16 13
24 19 11
24 21 9
24 23 13
25 1 10
25 4 5
25 5 2
25 7 3
25 11 12
25 12 2
25 14 7
25 15 11
25 16 7
25 17 5
25 18 4
25 19 10
25 21 2
25 22 2
25 24 8
26 1 6
26 2 6
26 3 4
26 4 11
26 6 8
26 7 13
26 9 5
26 10 12
26 14 9
26 16 4
26 17 13
26 18 14
26 20 1
26 21 4
26 22 3
26 23 14
27 1 10
27 2 4
27 3 3
27 4 12
27 5 10
27 6 6
27 7 3
27 8 12
27 13 3
27 18 4
27 20 13
27 21 13
27 24 9
27 26 13
28 0 7
28 1 9
28 2 5
28 3 9
28 4 2
28 7 9
28 8 4
28 11 13
28 13 6
28 14 10
28 15 6
28 17 12
28 19 1
28 21 14
28 22 6
28 23 4
28 24 9
28 25 8
28 26 11
28 27 10
29 3 6
29 4 13
29 6 8
29 10 4
29 11 9
29 12 13
29 13 5
29 16 4
29 17 6
29 18 5
29 23 10
29 26 11
